c generated by sgen
p cnf 73 156
-2 -3 -4 0
-1 -3 -4 0
-1 -2 -4 0
-1 -2 -3 0
-6 -7 -8 0
-5 -7 -8 0
-5 -6 -8 0
-5 -6 -7 0
-10 -11 -12 0
-9 -11 -12 0
-9 -10 -12 0
-9 -10 -11 0
-14 -15 -16 0
-13 -15 -16 0
-13 -14 -16 0
-13 -14 -15 0
-18 -19 -20 0
-17 -19 -20 0
-17 -18 -20 0
-17 -18 -19 0
-22 -23 -24 0
-21 -23 -24 0
-21 -22 -24 0
-21 -22 -23 0
-26 -27 -28 0
-25 -27 -28 0
-25 -26 -28 0
-25 -26 -27 0
-30 -31 -32 0
-29 -31 -32 0
-29 -30 -32 0
-29 -30 -31 0
-34 -35 -36 0
-33 -35 -36 0
-33 -34 -36 0
-33 -34 -35 0
-38 -39 -40 0
-37 -39 -40 0
-37 -38 -40 0
-37 -38 -39 0
-42 -43 -44 0
-41 -43 -44 0
-41 -42 -44 0
-41 -42 -43 0
-46 -47 -48 0
-45 -47 -48 0
-45 -46 -48 0
-45 -46 -47 0
-50 -51 -52 0
-49 -51 -52 0
-49 -50 -52 0
-49 -50 -51 0
-54 -55 -56 0
-53 -55 -56 0
-53 -54 -56 0
-53 -54 -55 0
-58 -59 -60 0
-57 -59 -60 0
-57 -58 -60 0
-57 -58 -59 0
-62 -63 -64 0
-61 -63 -64 0
-61 -62 -64 0
-61 -62 -63 0
-66 -67 -68 0
-65 -67 -68 0
-65 -66 -68 0
-65 -66 -67 0
-69 -70 -71 0
-69 -70 -72 0
-69 -70 -73 0
-69 -71 -72 0
-69 -71 -73 0
-69 -72 -73 0
-70 -71 -72 0
-70 -71 -73 0
-70 -72 -73 0
-71 -72 -73 0
49 4 28 0
34 4 28 0
34 49 28 0
34 49 4 0
62 46 20 0
3 46 20 0
3 62 20 0
3 62 46 0
21 33 45 0
12 33 45 0
12 21 45 0
12 21 33 0
25 9 13 0
58 9 13 0
58 25 13 0
58 25 9 0
63 66 55 0
52 66 55 0
52 63 55 0
52 63 66 0
47 30 15 0
67 30 15 0
67 47 15 0
67 47 30 0
31 57 51 0
43 57 51 0
43 31 51 0
43 31 57 0
5 53 17 0
10 53 17 0
10 5 17 0
10 5 53 0
71 29 1 0
11 29 1 0
11 71 1 0
11 71 29 0
19 73 22 0
41 73 22 0
41 19 22 0
41 19 73 0
68 6 60 0
23 6 60 0
23 68 60 0
23 68 6 0
65 35 37 0
44 35 37 0
44 65 37 0
44 65 35 0
18 27 32 0
39 27 32 0
39 18 32 0
39 18 27 0
16 64 24 0
70 64 24 0
70 16 24 0
70 16 64 0
61 7 26 0
42 7 26 0
42 61 26 0
42 61 7 0
14 2 54 0
40 2 54 0
40 14 54 0
40 14 2 0
59 56 69 0
36 56 69 0
36 59 69 0
36 59 56 0
72 38 8 0
72 38 50 0
72 38 48 0
72 8 50 0
72 8 48 0
72 50 48 0
38 8 50 0
38 8 48 0
38 50 48 0
8 50 48 0
